(set-logic QF_SLAH)

(declare-datatypes ((data_t 0)) (((c_data_t (sz Int)))))

(declare-heap (Int data_t))

(define-fun hck ((?x Int) (?y Int) (?v Int)) Bool
	(and
		(>= (- ?y ?x) 2) (<= (- ?y ?x) ?v)
		(sep (pto ?x (c_data_t (- ?y ?x))) (blk (+ ?x 1) ?y))
))

(define-fun-rec hls ((?x Int) (?y Int) (?v Int)) Bool
	(or
		(and (= ?x ?y) (_ emp Int data_t))
		(exists ((?w Int)) (sep (hck ?x ?w ?v) (hls ?w ?y ?v)))
))

(declare-const x0 Int)
(declare-const x1 Int)
(declare-const x2 Int)
(declare-const x3 Int)
(declare-const x4 Int)
(declare-const x5 Int)
(declare-const v4 Int)
(declare-const x6 Int)
(declare-const x7 Int)
(declare-const x8 Int)
(declare-const x9 Int)
(declare-const x10 Int)
(declare-const x11 Int)
(declare-const x12 Int)
(declare-const x13 Int)
(declare-const v12 Int)
(declare-const x14 Int)
(declare-const x15 Int)
(declare-const x16 Int)
(declare-const x17 Int)
(declare-const x18 Int)
(declare-const x19 Int)
(declare-const x20 Int)
(declare-const x21 Int)
(declare-const x22 Int)
(declare-const x23 Int)
(declare-const x24 Int)
(declare-const x25 Int)
(declare-const x26 Int)
(declare-const x27 Int)
(declare-const x28 Int)
(declare-const x29 Int)
(declare-const x30 Int)
(declare-const x31 Int)
(declare-const x32 Int)
(declare-const x33 Int)
(declare-const v32 Int)
(declare-const x34 Int)
(declare-const x35 Int)
(declare-const x36 Int)
(declare-const x37 Int)
(declare-const x38 Int)
(declare-const x39 Int)
(declare-const x40 Int)
(declare-const x41 Int)
(declare-const v40 Int)
(declare-const x42 Int)
(declare-const x43 Int)
(declare-const x44 Int)
(declare-const x45 Int)
(declare-const x46 Int)
(declare-const x47 Int)
(declare-const x48 Int)
(declare-const x49 Int)
(declare-const x50 Int)
(declare-const x51 Int)
(declare-const x52 Int)
(declare-const x53 Int)
(declare-const v52 Int)
(declare-const x54 Int)
(declare-const x55 Int)
(declare-const x56 Int)
(declare-const x57 Int)
(declare-const x58 Int)
(declare-const x59 Int)
(declare-const x60 Int)
(declare-const x61 Int)
(declare-const x62 Int)
(declare-const x63 Int)
(declare-const x64 Int)
(declare-const x65 Int)
(declare-const x66 Int)
(declare-const x67 Int)
(declare-const x68 Int)
(declare-const x69 Int)
(declare-const v68 Int)
(declare-const x70 Int)
(declare-const x71 Int)
(declare-const x72 Int)
(declare-const x73 Int)
(declare-const x74 Int)
(declare-const x75 Int)
(declare-const x76 Int)
(declare-const x77 Int)
(declare-const v76 Int)
(declare-const x78 Int)
(declare-const x79 Int)
(declare-const v78 Int)
(declare-const x80 Int)
(declare-const x81 Int)
(declare-const x82 Int)
(declare-const x83 Int)
(declare-const x84 Int)
(declare-const x85 Int)
(declare-const x86 Int)
(declare-const x87 Int)
(declare-const x88 Int)
(declare-const x89 Int)
(declare-const x90 Int)
(declare-const x91 Int)
(declare-const x92 Int)
(declare-const x93 Int)
(declare-const x94 Int)
(declare-const x95 Int)
(declare-const x96 Int)
(declare-const x97 Int)
(declare-const v96 Int)
(declare-const x98 Int)
(declare-const x99 Int)
(declare-const x100 Int)
(declare-const x101 Int)
(declare-const x102 Int)
(declare-const x103 Int)
(declare-const v102 Int)
(declare-const x104 Int)
(declare-const x105 Int)
(declare-const v104 Int)
(declare-const x106 Int)
(declare-const x107 Int)
(declare-const x108 Int)
(declare-const x109 Int)
(declare-const x110 Int)
(declare-const x111 Int)
(declare-const x112 Int)
(declare-const x113 Int)
(declare-const x114 Int)
(declare-const x115 Int)
(declare-const v114 Int)
(declare-const x116 Int)
(declare-const x117 Int)
(declare-const x118 Int)
(declare-const x119 Int)
(declare-const x120 Int)
(declare-const x121 Int)
(declare-const x122 Int)
(declare-const x123 Int)
(declare-const x124 Int)
(declare-const x125 Int)
(declare-const v124 Int)
(declare-const x126 Int)
(declare-const x127 Int)
(declare-const x128 Int)
(declare-const x129 Int)
(declare-const x130 Int)
(declare-const x131 Int)
(declare-const x132 Int)
(declare-const x133 Int)
(declare-const v132 Int)
(declare-const x134 Int)
(declare-const x135 Int)
(declare-const x136 Int)
(declare-const x137 Int)
(declare-const v136 Int)
(declare-const x138 Int)
(declare-const x139 Int)

(assert(and
(= x10 x109) (distinct x60 x115) (= x68 x70) (distinct x107 x77) (distinct x14 x126) (distinct x139 x27) (< x63 x89) (< x103 x36) (distinct x43 x125) (distinct x43 x86) (= x86 x129) (= x34 x124) (< x38 x112) (distinct x103 x58) (< x47 x110) 
(sep
(blk x0 x1)
(blk x2 x3)
(hls x4 x5 v4)
(blk x6 x7)
(pto x8 (c_data_t x9))
(blk x10 x11)
(hls x12 x13 v12)
(blk x14 x15)
(pto x16 (c_data_t x17))
(blk x18 x19)
(pto x20 (c_data_t x21))
(blk x22 x23)
(pto x24 (c_data_t x25))
(blk x26 x27)
(blk x28 x29)
(pto x30 (c_data_t x31))
(hls x32 x33 v32)
(pto x34 (c_data_t x35))
(blk x36 x37)
(pto x38 (c_data_t x39))
(hls x40 x41 v40)
(pto x42 (c_data_t x43))
(blk x44 x45)
(pto x46 (c_data_t x47))
(pto x48 (c_data_t x49))
(blk x50 x51)
(hls x52 x53 v52)
(pto x54 (c_data_t x55))
(blk x56 x57)
(pto x58 (c_data_t x59))
(blk x60 x61)
(blk x62 x63)
(blk x64 x65)
(pto x66 (c_data_t x67))
(hls x68 x69 v68)
(pto x70 (c_data_t x71))
(blk x72 x73)
(pto x74 (c_data_t x75))
(hls x76 x77 v76)
(hls x78 x79 v78)
(pto x80 (c_data_t x81))
(blk x82 x83)
(blk x84 x85)
(pto x86 (c_data_t x87))
(blk x88 x89)
(pto x90 (c_data_t x91))
(blk x92 x93)
(blk x94 x95)
(hls x96 x97 v96)
(pto x98 (c_data_t x99))
(blk x100 x101)
(hls x102 x103 v102)
(hls x104 x105 v104)
(blk x106 x107)
(pto x108 (c_data_t x109))
(blk x110 x111)
(blk x112 x113)
(hls x114 x115 v114)
(pto x116 (c_data_t x117))
(pto x118 (c_data_t x119))
(pto x120 (c_data_t x121))
(blk x122 x123)
(hls x124 x125 v124)
(pto x126 (c_data_t x127))
(pto x128 (c_data_t x129))
(pto x130 (c_data_t x131))
(hls x132 x133 v132)
(blk x134 x135)
(hls x136 x137 v136)
(blk x138 x139)
)))

(check-sat)